NAME : lkh_invoer
TYPE : TSP
COMMENT : No comment
DIMENSION : 50
EDGE_WEIGHT_TYPE : EXPLICIT
EDGE_WEIGHT_FORMAT : LOWER_DIAG_ROW
EDGE_DATA_FORMAT : EDGE_LIST
EDGE_DATA_SECTION :
 1 2
 1 3
 1 4
 1 5
 1 6
 1 7
 1 8
 1 9
 1 10
 1 11
 1 12
 1 13
 2 1
 2 4
 2 12
 2 14
 2 15
 2 16
 2 17
 2 18
 2 19
 3 1
 3 4
 3 9
 3 12
 3 20
 3 21
 3 22
 3 23
 3 24
 3 25
 3 26
 3 27
 4 1
 4 2
 4 3
 4 11
 4 16
 4 17
 4 20
 4 24
 4 26
 4 28
 4 29
 4 30
 4 31
 5 1
 5 9
 5 14
 5 20
 5 32
 5 33
 5 34
 5 35
 5 36
 6 1
 6 7
 6 16
 6 19
 6 21
 6 23
 6 25
 6 26
 6 28
 6 37
 6 38
 6 39
 7 1
 7 6
 7 10
 7 17
 7 26
 7 28
 7 32
 7 37
 7 40
 8 1
 8 15
 8 26
 8 29
 8 31
 8 35
 8 36
 8 39
 8 41
 8 42
 8 43
 8 44
 9 1
 9 3
 9 5
 9 13
 9 18
 9 22
 9 28
 9 33
 9 34
 9 38
 9 41
 9 45
 10 1
 10 7
 10 19
 10 20
 10 21
 10 22
 10 28
 10 29
 10 36
 10 39
 10 40
 11 1
 11 4
 11 21
 11 23
 11 33
 11 36
 11 39
 11 41
 11 44
 11 46
 12 1
 12 2
 12 3
 12 26
 12 34
 12 36
 12 40
 12 42
 13 1
 13 9
 13 15
 13 16
 13 26
 13 30
 13 43
 13 46
 13 47
 14 2
 14 5
 14 21
 14 22
 14 27
 14 30
 14 48
 15 2
 15 8
 15 13
 15 20
 15 34
 15 45
 15 46
 16 2
 16 4
 16 6
 16 13
 16 19
 16 20
 16 22
 16 25
 16 27
 16 29
 16 30
 16 31
 16 33
 16 34
 17 2
 17 4
 17 7
 17 23
 17 24
 17 31
 17 37
 17 43
 17 46
 17 47
 18 2
 18 9
 18 21
 18 28
 18 29
 18 31
 18 46
 19 2
 19 6
 19 16
 19 10
 19 29
 19 31
 19 36
 19 39
 19 43
 19 49
 20 3
 20 4
 20 5
 20 15
 20 16
 20 10
 20 22
 20 28
 20 32
 20 33
 20 35
 20 42
 20 43
 20 44
 20 46
 20 48
 20 50
 21 14
 21 3
 21 6
 21 10
 21 18
 21 11
 21 33
 21 34
 21 35
 21 49
 22 14
 22 3
 22 20
 22 16
 22 9
 22 10
 22 30
 23 3
 23 6
 23 17
 23 11
 23 29
 23 34
 23 35
 23 37
 23 41
 23 47
 23 50
 24 3
 24 4
 24 17
 24 27
 24 31
 24 35
 24 38
 24 41
 24 42
 24 47
 24 48
 25 3
 25 6
 25 16
 25 33
 25 35
 25 38
 25 39
 25 40
 25 46
 26 3
 26 4
 26 6
 26 7
 26 8
 26 12
 26 13
 26 31
 26 34
 26 42
 26 46
 26 47
 27 14
 27 3
 27 16
 27 24
 27 28
 27 31
 27 32
 27 35
 27 47
 27 48
 27 49
 27 50
 28 20
 28 4
 28 6
 28 7
 28 9
 28 10
 28 18
 28 27
 28 36
 28 38
 28 39
 28 40
 28 47
 28 49
 28 50
 29 23
 29 4
 29 16
 29 8
 29 10
 29 18
 29 19
 29 30
 29 44
 29 45
 30 14
 30 22
 30 4
 30 29
 30 16
 30 13
 30 31
 30 32
 30 35
 30 37
 30 41
 31 4
 31 30
 31 16
 31 17
 31 24
 31 8
 31 26
 31 18
 31 19
 31 27
 31 42
 32 20
 32 5
 32 30
 32 7
 32 27
 32 38
 32 41
 32 42
 32 43
 33 20
 33 21
 33 5
 33 16
 33 25
 33 9
 33 11
 33 34
 33 36
 33 43
 34 21
 34 23
 34 5
 34 15
 34 33
 34 16
 34 9
 34 26
 34 12
 34 36
 34 49
 35 20
 35 21
 35 23
 35 5
 35 30
 35 24
 35 8
 35 25
 35 27
 35 45
 36 28
 36 5
 36 33
 36 34
 36 8
 36 10
 36 11
 36 12
 36 19
 36 39
 36 43
 36 44
 36 45
 36 47
 36 48
 36 49
 36 50
 37 23
 37 30
 37 6
 37 17
 37 7
 37 38
 37 40
 37 45
 37 49
 38 32
 38 28
 38 37
 38 6
 38 24
 38 25
 38 9
 38 43
 38 48
 39 28
 39 6
 39 8
 39 25
 39 10
 39 11
 39 19
 39 36
 39 43
 39 44
 39 48
 39 50
 40 28
 40 37
 40 7
 40 25
 40 10
 40 12
 40 43
 40 44
 40 50
 41 32
 41 23
 41 30
 41 24
 41 8
 41 9
 41 11
 41 42
 41 43
 41 46
 41 49
 42 32
 42 20
 42 41
 42 31
 42 24
 42 8
 42 26
 42 12
 42 43
 42 45
 42 48
 43 32
 43 40
 43 20
 43 33
 43 41
 43 17
 43 42
 43 8
 43 38
 43 19
 43 36
 43 39
 43 13
 43 45
 44 40
 44 20
 44 29
 44 8
 44 11
 44 36
 44 39
 45 37
 45 29
 45 15
 45 35
 45 42
 45 9
 45 43
 45 36
 45 49
 45 50
 46 20
 46 15
 46 41
 46 17
 46 25
 46 26
 46 18
 46 11
 46 13
 46 48
 46 50
 47 28
 47 23
 47 17
 47 24
 47 26
 47 36
 47 13
 47 27
 47 49
 48 14
 48 46
 48 20
 48 24
 48 42
 48 38
 48 36
 48 39
 48 27
 49 28
 49 21
 49 37
 49 45
 49 47
 49 34
 49 41
 49 19
 49 36
 49 27
 50 46
 50 40
 50 28
 50 20
 50 23
 50 45
 50 36
 50 39
 50 27
EOF
